decision_x1=[0,4];
decision_x2=[0,4];
decision_x3=[0,4];
decision_x4=[0,4];
decision_x5=[0,4];
decision_x6=[0,4];
decision_x7=[0,4];
decision_x8=[0,4];
random_y1=[0,4];
random_y2=[0,4];
random_y3=[0,4];
random_y4=[0,4];
constraint_x3_x1=[
0,1,7.9|
0,2,3.5|
0,3,2.9|
0,4,7.5|
1,0,3.8|
1,2,3|
1,3,3.1|
1,4,2.3|
2,0,1.5|
2,1,5.9|
2,3,8.2|
2,4,3.2|
3,0,8.5|
3,1,4|
3,2,5.5|
3,4,6.6|
4,0,0.28|
4,1,6.3|
4,2,9.1|
4,3,2.4|
];
constraint_x3_x2=[
0,1,2.3|
0,2,5.4|
0,3,1.6|
0,4,8.5|
1,0,7.3|
1,2,0.31|
1,3,9.6|
1,4,2.7|
2,0,0.79|
2,1,5.8|
2,3,1.4|
2,4,3.9|
3,0,9|
3,1,5.7|
3,2,3.2|
3,4,2.6|
4,0,7.5|
4,1,2|
4,2,5|
4,3,4.5|
];
constraint_x4_x2=[
0,1,2.6|
0,2,8.3|
0,3,8.9|
0,4,8.9|
1,0,0.62|
1,2,2.3|
1,3,5.2|
1,4,4.1|
2,0,5.4|
2,1,5.8|
2,3,5.8|
2,4,5.9|
3,0,1.6|
3,1,5.3|
3,2,7|
3,4,5.7|
4,0,9.7|
4,1,4.5|
4,2,4.6|
4,3,0.86|
];
constraint_x4_x3=[
0,1,1.5|
0,2,0.23|
0,3,7.4|
0,4,9|
1,0,3.5|
1,2,1.7|
1,3,9.8|
1,4,7.8|
2,0,4.1|
2,1,6.8|
2,3,5.8|
2,4,2|
3,0,5.1|
3,1,5.6|
3,2,4.4|
3,4,9.2|
4,0,7.1|
4,1,2.4|
4,2,9.1|
4,3,9.5|
];
constraint_x5_x4=[
0,1,3.6|
0,2,9.5|
0,3,4.6|
0,4,1.6|
1,0,0.67|
1,2,0.69|
1,3,2.1|
1,4,4.3|
2,0,1.3|
2,1,8.1|
2,3,6.4|
2,4,9|
3,0,3.4|
3,1,1.4|
3,2,5.4|
3,4,2|
4,0,0.96|
4,1,6.3|
4,2,6|
4,3,7.2|
];
constraint_x6_x3=[
0,1,4.5|
0,2,6|
0,3,6.1|
0,4,9.9|
1,0,5.8|
1,2,8.8|
1,3,8.9|
1,4,1.1|
2,0,3.8|
2,1,5.1|
2,3,1.4|
2,4,0.91|
3,0,9.4|
3,1,4.1|
3,2,4.3|
3,4,2.3|
4,0,0.1|
4,1,4.8|
4,2,0.63|
4,3,1|
];
constraint_x7_x5=[
0,1,5.2|
0,2,4.8|
0,3,1.1|
0,4,6.3|
1,0,1|
1,2,2.3|
1,3,7.1|
1,4,1|
2,0,9.5|
2,1,5.7|
2,3,9.9|
2,4,5.7|
3,0,7|
3,1,4.3|
3,2,0.72|
3,4,7.9|
4,0,5.1|
4,1,3.9|
4,2,4.6|
4,3,5.8|
];
constraint_x7_x6=[
0,1,1.9|
0,2,0.57|
0,3,9.4|
0,4,4.4|
1,0,9.1|
1,2,6.5|
1,3,5.1|
1,4,8.8|
2,0,4|
2,1,6.1|
2,3,0.49|
2,4,2.5|
3,0,5.3|
3,1,9.1|
3,2,1.5|
3,4,3.1|
4,0,3.5|
4,1,7.7|
4,2,9.7|
4,3,9.4|
];
constraint_x8_x1=[
0,1,8.3|
0,2,8.5|
0,3,3.5|
0,4,0.81|
1,0,6.6|
1,2,5.1|
1,3,2|
1,4,9.9|
2,0,9.3|
2,1,2.8|
2,3,7.4|
2,4,3.3|
3,0,6.4|
3,1,3|
3,2,0.37|
3,4,5.6|
4,0,1.1|
4,1,7.6|
4,2,9|
4,3,6.6|
];
constraint_x8_x2=[
0,1,4.7|
0,2,4.1|
0,3,8.5|
0,4,9.1|
1,0,2.9|
1,2,8.5|
1,3,6.4|
1,4,7.1|
2,0,4.6|
2,1,2.2|
2,3,2.1|
2,4,3.4|
3,0,7.2|
3,1,0.0035|
3,2,1.7|
3,4,5.1|
4,0,8.4|
4,1,9.6|
4,2,2.7|
4,3,9.1|
];
constraint_x8_x3=[
0,1,1.1|
0,2,7.9|
0,3,9.4|
0,4,4.5|
1,0,9.5|
1,2,2.4|
1,3,1.7|
1,4,2.5|
2,0,3.6|
2,1,7.6|
2,3,7.8|
2,4,8|
3,0,1.5|
3,1,3.5|
3,2,8.6|
3,4,6.8|
4,0,9.3|
4,1,4.5|
4,2,0.92|
4,3,5.8|
];
constraint_x8_x4=[
0,1,5.3|
0,2,2.8|
0,3,7.7|
0,4,2.3|
1,0,8.4|
1,2,1.9|
1,3,8.5|
1,4,9.7|
2,0,9.3|
2,1,2.5|
2,3,4.7|
2,4,7.3|
3,0,5.2|
3,1,3.1|
3,2,1.6|
3,4,2.8|
4,0,0.84|
4,1,7|
4,2,3.4|
4,3,6|
];
constraint_x8_x5=[
0,1,8.2|
0,2,1.3|
0,3,0.45|
0,4,6.5|
1,0,9.4|
1,2,8.1|
1,3,2.7|
1,4,9.4|
2,0,3.7|
2,1,9.9|
2,3,4.6|
2,4,3.8|
3,0,0.95|
3,1,7.5|
3,2,8.8|
3,4,6.1|
4,0,5.2|
4,1,4.6|
4,2,5.9|
4,3,1.1|
];
constraint_x8_x7=[
0,1,3.4|
0,2,8.6|
0,3,6.4|
0,4,2|
1,0,1.3|
1,2,8.5|
1,3,0.1|
1,4,2.2|
2,0,3.4|
2,1,2.8|
2,3,3.7|
2,4,2.3|
3,0,5.1|
3,1,2.4|
3,2,4.9|
3,4,7.2|
4,0,4.1|
4,1,2.8|
4,2,6.2|
4,3,0.28|
];
constraint_x1_y1=[
0,0,5.7|
0,1,4.5|
0,2,9.4|
0,3,1.3|
0,4,6.9|
1,0,9.7|
1,1,8.8|
1,2,0.64|
1,3,8.2|
1,4,7.6|
2,0,8.1|
2,1,0.6|
2,2,5.5|
2,3,6.3|
2,4,9.8|
3,0,7.4|
3,1,8.2|
3,2,5.3|
3,3,7.7|
3,4,0.5|
4,0,8.6|
4,1,6|
4,2,1.9|
4,3,8.1|
4,4,4.9|
];
constraint_x2_y2=[
0,0,0.023|
0,1,8.2|
0,2,4.9|
0,3,5.3|
0,4,2.5|
1,0,9.8|
1,1,4.4|
1,2,3.3|
1,3,7.2|
1,4,5.9|
2,0,7.9|
2,1,2.4|
2,2,2.1|
2,3,6.1|
2,4,3.8|
3,0,9.7|
3,1,1.8|
3,2,6.9|
3,3,9.6|
3,4,4.1|
4,0,7|
4,1,3.4|
4,2,9.1|
4,3,1.3|
4,4,6.5|
];
constraint_x3_y3=[
0,0,7.5|
0,1,6.2|
0,2,0.34|
0,3,7.6|
0,4,7.1|
1,0,1.3|
1,1,7.4|
1,2,9.3|
1,3,7.8|
1,4,7.8|
2,0,3|
2,1,8.4|
2,2,1.4|
2,3,7|
2,4,5.2|
3,0,3.2|
3,1,3.3|
3,2,2|
3,3,3.8|
3,4,0.97|
4,0,5.4|
4,1,0.66|
4,2,8.7|
4,3,8.5|
4,4,8.7|
];
constraint_x4_y4=[
0,0,4|
0,1,0.94|
0,2,1.9|
0,3,6.1|
0,4,4.9|
1,0,4|
1,1,3.2|
1,2,0.047|
1,3,5.1|
1,4,6.4|
2,0,7.5|
2,1,7|
2,2,3.1|
2,3,6|
2,4,7.5|
3,0,9.3|
3,1,0.85|
3,2,0.84|
3,3,0.67|
3,4,6.5|
4,0,8.9|
4,1,5.7|
4,2,0.32|
4,3,0.26|
4,4,0.57|
];
initial_distribution_y1=[0.24,0.1,0.21,0.28,0.18];
initial_distribution_y2=[0.23,0.13,0.14,0.34,0.17];
initial_distribution_y3=[0.22,0.26,0.22,0.16,0.14];
initial_distribution_y4=[0.31,0.25,0.15,0.22,0.065];
transition_y1=[
0.044,0.39,0.038,0.3,0.22|
0.015,0.47,0.33,0.05,0.14|
0.12,0.38,0.031,0.4,0.069|
0.094,0.011,0.2,0.35,0.34|
0.24,0.23,0.11,0.29,0.12|
];
transition_y2=[
0.11,0.044,0.32,0.34,0.19|
0.26,0.21,0.15,0.13,0.24|
0.14,0.21,0.31,0.31,0.038|
0.016,0.32,0.31,0.24,0.12|
0.41,0.067,0.018,0.047,0.45|
];
transition_y3=[
0.036,0.089,0.31,0.3,0.26|
0.062,0.033,0.046,0.45,0.41|
0.37,0.2,0.26,0.085,0.085|
0.095,0.31,0.069,0.24,0.29|
0.52,0.19,0.019,0.097,0.18|
];
transition_y4=[
0.27,0.18,0.078,0.065,0.41|
0.33,0.35,0.068,0.15,0.098|
0.038,0.33,0.38,0.24,0.0091|
0.31,0.33,0.042,0.011,0.3|
0.25,0.013,0.3,0.15,0.29|
];
